CPXPARAM_TimeLimit                               3600
CPXPARAM_Read_DataCheck                          1
CPXPARAM_MIP_Limits_Solutions                    1
Tried aggregator 1 time.
MIP Presolve eliminated 1415 rows and 0 columns.
MIP Presolve modified 2615 coefficients.
Reduced MIP has 70120 rows, 22276 columns, and 251593 nonzeros.
Reduced MIP has 1575 binaries, 0 generals, 0 SOSs, and 0 indicators.
Presolve time = 0.06 sec. (89.33 ticks)
Found incumbent of value 9543.000000 after 0.13 sec. (158.03 ticks)

Root node processing (before b&c):
  Real time             =    0.13 sec. (159.12 ticks)
Parallel b&c, 8 threads:
  Real time             =    0.00 sec. (0.00 ticks)
  Sync time (average)   =    0.00 sec.
  Wait time (average)   =    0.00 sec.
                          ------------
Total (root+branch&cut) =    0.13 sec. (159.12 ticks)
